(set-info :smt-lib-version 2.6)
(set-logic UFLIA)
(set-info :source |Benchmarks from the paper: "Extending Sledgehammer with SMT Solvers" by Jasmin Blanchette, Sascha Bohme, and Lawrence C. Paulson, CADE 2011.  Translated to SMT2 by Andrew Reynolds and Morgan Deters.|)
(set-info :category "industrial")
(set-info :status unknown)
(declare-sort S1 0)
(declare-sort S2 0)
(declare-sort S3 0)
(declare-sort S4 0)
(declare-sort S5 0)
(declare-sort S6 0)
(declare-sort S7 0)
(declare-sort S8 0)
(declare-sort S9 0)
(declare-sort S10 0)
(declare-sort S11 0)
(declare-sort S12 0)
(declare-sort S13 0)
(declare-sort S14 0)
(declare-sort S15 0)
(declare-sort S16 0)
(declare-sort S17 0)
(declare-sort S18 0)
(declare-sort S19 0)
(declare-sort S20 0)
(declare-sort S21 0)
(declare-sort S22 0)
(declare-sort S23 0)
(declare-sort S24 0)
(declare-sort S25 0)
(declare-sort S26 0)
(declare-sort S27 0)
(declare-fun f1 () S1)
(declare-fun f2 () S1)
(declare-fun f3 (S3 S2) S1)
(declare-fun f4 (S4 S3) S3)
(declare-fun f5 (S2) S4)
(declare-fun f6 (S2 S3) S1)
(declare-fun f7 (S6 S5) S1)
(declare-fun f8 (S7 S6) S6)
(declare-fun f9 (S5) S7)
(declare-fun f10 (S5 S6) S1)
(declare-fun f11 (S2) S4)
(declare-fun f12 (S5) S7)
(declare-fun f13 () S3)
(declare-fun f14 () S6)
(declare-fun f15 (S8) S1)
(declare-fun f16 () S8)
(declare-fun f17 (S3 S3) S1)
(declare-fun f18 () S3)
(declare-fun f19 (S2) S4)
(declare-fun f20 (S9 S8) S2)
(declare-fun f21 () S9)
(declare-fun f22 () S3)
(declare-fun f23 () S1)
(declare-fun f24 (S10) S6)
(declare-fun f25 () S10)
(declare-fun f26 (S11 S5) S8)
(declare-fun f27 () S11)
(declare-fun f28 (S5) S7)
(declare-fun f29 () S6)
(declare-fun f30 () S1)
(declare-fun f31 (S3) S3)
(declare-fun f32 (S6) S6)
(declare-fun f33 (S13 S3) S2)
(declare-fun f34 () S13)
(declare-fun f35 (S14 S6) S5)
(declare-fun f36 () S14)
(declare-fun f37 (S3 S3) S1)
(declare-fun f38 (S16 S15) S2)
(declare-fun f39 (S17 S8) S16)
(declare-fun f40 (S18 S15) S17)
(declare-fun f41 () S18)
(declare-fun f42 (S19 S20) S8)
(declare-fun f43 () S19)
(declare-fun f44 (S10 S5) S20)
(declare-fun f45 (S21 S12) S1)
(declare-fun f46 (S15 S12) S21)
(declare-fun f47 (S22) S3)
(declare-fun f48 (S23 Int) S22)
(declare-fun f49 () S23)
(declare-fun f50 (S24 S22) Int)
(declare-fun f51 () S24)
(declare-fun f52 (S26 S2) S22)
(declare-fun f53 (S27 S25) S26)
(declare-fun f54 () S27)
(declare-fun f55 () S8)
(assert (not (= f1 f2)))
(assert (forall ((?v0 S2) (?v1 S3) (?v2 S2)) (= (= (f3 (f4 (f5 ?v0) ?v1) ?v2) f1) (or (= ?v2 ?v0) (= (f6 ?v2 ?v1) f1)))))
(assert (forall ((?v0 S5) (?v1 S6) (?v2 S5)) (= (= (f7 (f8 (f9 ?v0) ?v1) ?v2) f1) (or (= ?v2 ?v0) (= (f10 ?v2 ?v1) f1)))))
(assert (forall ((?v0 S2) (?v1 S3) (?v2 S2)) (= (= (f3 (f4 (f11 ?v0) ?v1) ?v2) f1) (=> (not (= ?v2 ?v0)) (= (f3 ?v1 ?v2) f1)))))
(assert (forall ((?v0 S5) (?v1 S6) (?v2 S5)) (= (= (f7 (f8 (f12 ?v0) ?v1) ?v2) f1) (=> (not (= ?v2 ?v0)) (= (f7 ?v1 ?v2) f1)))))
(assert (forall ((?v0 S2)) (= (= (f3 f13 ?v0) f1) false)))
(assert (forall ((?v0 S5)) (= (= (f7 f14 ?v0) f1) false)))
(assert (not (=> (= (f15 f16) f1) (= (f17 f18 (f4 (f19 (f20 f21 f16)) f22)) f1))))
(assert (= f23 f1))
(assert (forall ((?v0 S5)) (=> (= (f10 ?v0 (f24 f25)) f1) (= (f17 f18 (f4 (f19 (f20 f21 (f26 f27 ?v0))) f22)) f1))))
(assert (forall ((?v0 S3)) (= (f17 ?v0 f22) f1)))
(assert (forall ((?v0 S3) (?v1 S3) (?v2 S3)) (=> (= (f17 ?v0 ?v1) f1) (=> (= (f17 ?v2 ?v0) f1) (= (f17 ?v2 ?v1) f1)))))
(assert (forall ((?v0 S3) (?v1 S2) (?v2 S3)) (let ((?v_0 (f19 ?v1))) (=> (= (f17 ?v0 (f4 ?v_0 f22)) f1) (=> (= (f17 ?v0 ?v2) f1) (= (f17 ?v0 (f4 ?v_0 ?v2)) f1))))))
(assert (forall ((?v0 S3) (?v1 S2) (?v2 S3)) (let ((?v_0 (f19 ?v1))) (=> (= (f17 ?v0 (f4 ?v_0 ?v2)) f1) (and (= (f17 ?v0 (f4 ?v_0 f22)) f1) (= (f17 ?v0 ?v2) f1))))))
(assert (forall ((?v0 S2) (?v1 S2) (?v2 S3)) (=> (= (f6 ?v0 (f4 (f19 ?v1) ?v2)) f1) (=> (=> (= ?v0 ?v1) false) (=> (=> (= (f6 ?v0 ?v2) f1) false) false)))))
(assert (forall ((?v0 S5) (?v1 S5) (?v2 S6)) (=> (= (f10 ?v0 (f8 (f28 ?v1) ?v2)) f1) (=> (=> (= ?v0 ?v1) false) (=> (=> (= (f10 ?v0 ?v2) f1) false) false)))))
(assert (forall ((?v0 S2) (?v1 S3) (?v2 S2)) (=> (=> (not (= (f6 ?v0 ?v1) f1)) (= ?v0 ?v2)) (= (f6 ?v0 (f4 (f19 ?v2) ?v1)) f1))))
(assert (forall ((?v0 S5) (?v1 S6) (?v2 S5)) (=> (=> (not (= (f10 ?v0 ?v1) f1)) (= ?v0 ?v2)) (= (f10 ?v0 (f8 (f28 ?v2) ?v1)) f1))))
(assert (forall ((?v0 S5)) (=> (= (f10 ?v0 f29) f1) false)))
(assert (forall ((?v0 S2)) (=> (= (f6 ?v0 f22) f1) false)))
(assert (= (= f23 f1) (exists ((?v0 S12) (?v1 S12)) (not (= ?v0 ?v1)))))
(assert (=> (= f23 f1) (forall ((?v0 S12)) (=> (forall ((?v1 S12)) (= ?v1 ?v0)) false))))
(assert (forall ((?v0 S2) (?v1 S3)) (not (= f22 (f4 (f19 ?v0) ?v1)))))
(assert (forall ((?v0 S5) (?v1 S6)) (not (= f29 (f8 (f28 ?v0) ?v1)))))
(assert (forall ((?v0 S2) (?v1 S3)) (not (= (f4 (f19 ?v0) ?v1) f22))))
(assert (forall ((?v0 S5) (?v1 S6)) (not (= (f8 (f28 ?v0) ?v1) f29))))
(assert (forall ((?v0 S2) (?v1 S2)) (= (= (f6 ?v0 (f4 (f19 ?v1) f22)) f1) (= ?v0 ?v1))))
(assert (forall ((?v0 S5) (?v1 S5)) (= (= (f10 ?v0 (f8 (f28 ?v1) f29)) f1) (= ?v0 ?v1))))
(assert (forall ((?v0 S2) (?v1 S2) (?v2 S2) (?v3 S2)) (= (= (f4 (f19 ?v0) (f4 (f19 ?v1) f22)) (f4 (f19 ?v2) (f4 (f19 ?v3) f22))) (or (and (= ?v0 ?v2) (= ?v1 ?v3)) (and (= ?v0 ?v3) (= ?v1 ?v2))))))
(assert (forall ((?v0 S5) (?v1 S5) (?v2 S5) (?v3 S5)) (= (= (f8 (f28 ?v0) (f8 (f28 ?v1) f29)) (f8 (f28 ?v2) (f8 (f28 ?v3) f29))) (or (and (= ?v0 ?v2) (= ?v1 ?v3)) (and (= ?v0 ?v3) (= ?v1 ?v2))))))
(assert (forall ((?v0 S2) (?v1 S2)) (=> (= (f6 ?v0 (f4 (f19 ?v1) f22)) f1) (=> (=> (= ?v0 ?v1) false) false))))
(assert (forall ((?v0 S5) (?v1 S5)) (=> (= (f10 ?v0 (f8 (f28 ?v1) f29)) f1) (=> (=> (= ?v0 ?v1) false) false))))
(assert (forall ((?v0 S2) (?v1 S2)) (=> (= (f4 (f19 ?v0) f22) (f4 (f19 ?v1) f22)) (= ?v0 ?v1))))
(assert (forall ((?v0 S5) (?v1 S5)) (=> (= (f8 (f28 ?v0) f29) (f8 (f28 ?v1) f29)) (= ?v0 ?v1))))
(assert (forall ((?v0 S2)) (= (= (f3 f22 ?v0) f1) (= f30 f1))))
(assert (forall ((?v0 S5)) (= (= (f7 f29 ?v0) f1) (= f30 f1))))
(assert (forall ((?v0 S6) (?v1 S5)) (=> (= ?v0 f29) (not (= (f10 ?v1 ?v0) f1)))))
(assert (forall ((?v0 S3) (?v1 S2)) (=> (= ?v0 f22) (not (= (f6 ?v1 ?v0) f1)))))
(assert (forall ((?v0 S3)) (= (= (f31 ?v0) f22) (forall ((?v1 S2)) (not (= (f3 ?v0 ?v1) f1))))))
(assert (forall ((?v0 S6)) (= (= (f32 ?v0) f29) (forall ((?v1 S5)) (not (= (f7 ?v0 ?v1) f1))))))
(assert (forall ((?v0 S5)) (= (= (f10 ?v0 f29) f1) false)))
(assert (forall ((?v0 S2)) (= (= (f6 ?v0 f22) f1) false)))
(assert (forall ((?v0 S3)) (= (= f22 (f31 ?v0)) (forall ((?v1 S2)) (not (= (f3 ?v0 ?v1) f1))))))
(assert (forall ((?v0 S6)) (= (= f29 (f32 ?v0)) (forall ((?v1 S5)) (not (= (f7 ?v0 ?v1) f1))))))
(assert (forall ((?v0 S6)) (= (forall ((?v1 S5)) (=> (= (f10 ?v1 f29) f1) (= (f7 ?v0 ?v1) f1))) true)))
(assert (forall ((?v0 S3)) (= (forall ((?v1 S2)) (=> (= (f6 ?v1 f22) f1) (= (f3 ?v0 ?v1) f1))) true)))
(assert (forall ((?v0 S6)) (= (exists ((?v1 S5)) (and (= (f10 ?v1 f29) f1) (= (f7 ?v0 ?v1) f1))) false)))
(assert (forall ((?v0 S3)) (= (exists ((?v1 S2)) (and (= (f6 ?v1 f22) f1) (= (f3 ?v0 ?v1) f1))) false)))
(assert (forall ((?v0 S6)) (= (exists ((?v1 S5)) (= (f10 ?v1 ?v0) f1)) (not (= ?v0 f29)))))
(assert (forall ((?v0 S3)) (= (exists ((?v1 S2)) (= (f6 ?v1 ?v0) f1)) (not (= ?v0 f22)))))
(assert (forall ((?v0 S6)) (= (forall ((?v1 S5)) (not (= (f10 ?v1 ?v0) f1))) (= ?v0 f29))))
(assert (forall ((?v0 S3)) (= (forall ((?v1 S2)) (not (= (f6 ?v1 ?v0) f1))) (= ?v0 f22))))
(assert (= f22 (f31 f13)))
(assert (= f29 (f32 f14)))
(assert (forall ((?v0 S2) (?v1 S3)) (=> (= (f6 ?v0 ?v1) f1) (= (f4 (f19 ?v0) ?v1) ?v1))))
(assert (forall ((?v0 S5) (?v1 S6)) (=> (= (f10 ?v0 ?v1) f1) (= (f8 (f28 ?v0) ?v1) ?v1))))
(assert (forall ((?v0 S2) (?v1 S3) (?v2 S2)) (=> (= (f6 ?v0 ?v1) f1) (= (f6 ?v0 (f4 (f19 ?v2) ?v1)) f1))))
(assert (forall ((?v0 S5) (?v1 S6) (?v2 S5)) (=> (= (f10 ?v0 ?v1) f1) (= (f10 ?v0 (f8 (f28 ?v2) ?v1)) f1))))
(assert (forall ((?v0 S2) (?v1 S3) (?v2 S3)) (let ((?v_0 (f19 ?v0))) (=> (not (= (f6 ?v0 ?v1) f1)) (=> (not (= (f6 ?v0 ?v2) f1)) (= (= (f4 ?v_0 ?v1) (f4 ?v_0 ?v2)) (= ?v1 ?v2)))))))
(assert (forall ((?v0 S5) (?v1 S6) (?v2 S6)) (let ((?v_0 (f28 ?v0))) (=> (not (= (f10 ?v0 ?v1) f1)) (=> (not (= (f10 ?v0 ?v2) f1)) (= (= (f8 ?v_0 ?v1) (f8 ?v_0 ?v2)) (= ?v1 ?v2)))))))
(assert (forall ((?v0 S2) (?v1 S3) (?v2 S2)) (= (= (f3 (f4 (f19 ?v0) ?v1) ?v2) f1) (or (= ?v0 ?v2) (= (f3 ?v1 ?v2) f1)))))
(assert (forall ((?v0 S5) (?v1 S6) (?v2 S5)) (= (= (f7 (f8 (f28 ?v0) ?v1) ?v2) f1) (or (= ?v0 ?v2) (= (f7 ?v1 ?v2) f1)))))
(assert (forall ((?v0 S2) (?v1 S2) (?v2 S3)) (= (= (f6 ?v0 (f4 (f19 ?v1) ?v2)) f1) (or (= ?v0 ?v1) (= (f6 ?v0 ?v2) f1)))))
(assert (forall ((?v0 S5) (?v1 S5) (?v2 S6)) (= (= (f10 ?v0 (f8 (f28 ?v1) ?v2)) f1) (or (= ?v0 ?v1) (= (f10 ?v0 ?v2) f1)))))
(assert (forall ((?v0 S2) (?v1 S2) (?v2 S3)) (let ((?v_1 (f19 ?v0)) (?v_0 (f19 ?v1))) (= (f4 ?v_1 (f4 ?v_0 ?v2)) (f4 ?v_0 (f4 ?v_1 ?v2))))))
(assert (forall ((?v0 S5) (?v1 S5) (?v2 S6)) (let ((?v_1 (f28 ?v0)) (?v_0 (f28 ?v1))) (= (f8 ?v_1 (f8 ?v_0 ?v2)) (f8 ?v_0 (f8 ?v_1 ?v2))))))
(assert (forall ((?v0 S2) (?v1 S3)) (let ((?v_0 (f19 ?v0))) (let ((?v_1 (f4 ?v_0 ?v1))) (= (f4 ?v_0 ?v_1) ?v_1)))))
(assert (forall ((?v0 S5) (?v1 S6)) (let ((?v_0 (f28 ?v0))) (let ((?v_1 (f8 ?v_0 ?v1))) (= (f8 ?v_0 ?v_1) ?v_1)))))
(assert (forall ((?v0 S2) (?v1 S3)) (= (f4 (f19 ?v0) (f31 ?v1)) (f31 (f4 (f11 ?v0) ?v1)))))
(assert (forall ((?v0 S5) (?v1 S6)) (= (f8 (f28 ?v0) (f32 ?v1)) (f32 (f8 (f12 ?v0) ?v1)))))
(assert (forall ((?v0 S2) (?v1 S3)) (= (f4 (f19 ?v0) ?v1) (f31 (f4 (f5 ?v0) ?v1)))))
(assert (forall ((?v0 S5) (?v1 S6)) (= (f8 (f28 ?v0) ?v1) (f32 (f8 (f9 ?v0) ?v1)))))
(assert (forall ((?v0 S2) (?v1 S3)) (= (f6 ?v0 (f4 (f19 ?v0) ?v1)) f1)))
(assert (forall ((?v0 S5) (?v1 S6)) (= (f10 ?v0 (f8 (f28 ?v0) ?v1)) f1)))
(assert (forall ((?v0 S2)) (= (= (f3 f22 ?v0) f1) (= f30 f1))))
(assert (forall ((?v0 S5)) (= (= (f7 f29 ?v0) f1) (= f30 f1))))
(assert (forall ((?v0 S2)) (= (f33 f34 (f4 (f19 ?v0) f22)) ?v0)))
(assert (forall ((?v0 S5)) (= (f35 f36 (f8 (f28 ?v0) f29)) ?v0)))
(assert (forall ((?v0 S2) (?v1 S3)) (=> (= (f6 ?v0 ?v1) f1) (=> (forall ((?v2 S3)) (=> (= ?v1 (f4 (f19 ?v0) ?v2)) (=> (not (= (f6 ?v0 ?v2) f1)) false))) false))))
(assert (forall ((?v0 S5) (?v1 S6)) (=> (= (f10 ?v0 ?v1) f1) (=> (forall ((?v2 S6)) (=> (= ?v1 (f8 (f28 ?v0) ?v2)) (=> (not (= (f10 ?v0 ?v2) f1)) false))) false))))
(assert (forall ((?v0 S2) (?v1 S3)) (=> (= (f6 ?v0 ?v1) f1) (exists ((?v2 S3)) (and (= ?v1 (f4 (f19 ?v0) ?v2)) (not (= (f6 ?v0 ?v2) f1)))))))
(assert (forall ((?v0 S5) (?v1 S6)) (=> (= (f10 ?v0 ?v1) f1) (exists ((?v2 S6)) (and (= ?v1 (f8 (f28 ?v0) ?v2)) (not (= (f10 ?v0 ?v2) f1)))))))
(assert (forall ((?v0 S6)) (=> (forall ((?v1 S5)) (=> (= (f10 ?v1 ?v0) f1) false)) (= ?v0 f29))))
(assert (forall ((?v0 S3)) (=> (forall ((?v1 S2)) (=> (= (f6 ?v1 ?v0) f1) false)) (= ?v0 f22))))
(assert (forall ((?v0 S8) (?v1 S15) (?v2 S15)) (let ((?v_0 (f4 (f19 (f38 (f39 (f40 f41 ?v1) ?v0) ?v2)) f22))) (=> (= (f17 f22 (f4 (f19 (f20 f21 ?v0)) f22)) f1) (=> (= (f37 f22 ?v_0) f1) (= (f17 f22 ?v_0) f1))))))
(assert (forall ((?v0 S5) (?v1 S5)) (= (= (f26 f27 ?v0) (f26 f27 ?v1)) (= ?v0 ?v1))))
(assert (forall ((?v0 S3)) (= (not (= ?v0 f22)) (exists ((?v1 S2) (?v2 S3)) (and (= ?v0 (f4 (f19 ?v1) ?v2)) (not (= (f6 ?v1 ?v2) f1)))))))
(assert (forall ((?v0 S6)) (= (not (= ?v0 f29)) (exists ((?v1 S5) (?v2 S6)) (and (= ?v0 (f8 (f28 ?v1) ?v2)) (not (= (f10 ?v1 ?v2) f1)))))))
(assert (forall ((?v0 S5)) (= (= (f7 f29 ?v0) f1) (= (f10 ?v0 f29) f1))))
(assert (forall ((?v0 S2)) (= (= (f3 f22 ?v0) f1) (= (f6 ?v0 f22) f1))))
(assert (forall ((?v0 S15) (?v1 S5) (?v2 S15) (?v3 S3)) (let ((?v_0 (f40 f41 ?v0))) (let ((?v_1 (f19 (f38 (f39 ?v_0 (f26 f27 ?v1)) ?v2)))) (=> (= (f17 (f4 ?v_1 ?v3) (f4 (f19 (f38 (f39 ?v_0 (f42 f43 (f44 f25 ?v1))) ?v2)) f22)) f1) (= (f17 ?v3 (f4 ?v_1 f22)) f1))))))
(assert (forall ((?v0 S3) (?v1 S15) (?v2 S5) (?v3 S15)) (let ((?v_0 (f40 f41 ?v1))) (=> (= (f17 ?v0 (f4 (f19 (f38 (f39 ?v_0 (f42 f43 (f44 f25 ?v2))) ?v3)) f22)) f1) (= (f17 ?v0 (f4 (f19 (f38 (f39 ?v_0 (f26 f27 ?v2)) ?v3)) f22)) f1)))))
(assert (forall ((?v0 S15) (?v1 S8) (?v2 S15) (?v3 S15) (?v4 S8) (?v5 S15)) (= (= (f38 (f39 (f40 f41 ?v0) ?v1) ?v2) (f38 (f39 (f40 f41 ?v3) ?v4) ?v5)) (and (= ?v0 ?v3) (and (= ?v1 ?v4) (= ?v2 ?v5))))))
(assert (forall ((?v0 S3) (?v1 S3)) (=> (= (f17 ?v0 ?v1) f1) (= (f37 ?v0 ?v1) f1))))
(assert (forall ((?v0 S3) (?v1 S15) (?v2 S8) (?v3 S15) (?v4 S15)) (let ((?v_0 (f39 (f40 f41 ?v1) ?v2))) (=> (= (f17 ?v0 (f4 (f19 (f38 ?v_0 ?v3)) f22)) f1) (=> (forall ((?v5 S12) (?v6 S12)) (=> (= (f45 (f46 ?v3 ?v5) ?v6) f1) (= (f45 (f46 ?v4 ?v5) ?v6) f1))) (= (f17 ?v0 (f4 (f19 (f38 ?v_0 ?v4)) f22)) f1))))))
(assert (forall ((?v0 S3) (?v1 S15) (?v2 S8) (?v3 S15) (?v4 S15)) (=> (= (f17 ?v0 (f4 (f19 (f38 (f39 (f40 f41 ?v1) ?v2) ?v3)) f22)) f1) (=> (forall ((?v5 S12) (?v6 S12)) (=> (= (f45 (f46 ?v4 ?v5) ?v6) f1) (= (f45 (f46 ?v1 ?v5) ?v6) f1))) (= (f17 ?v0 (f4 (f19 (f38 (f39 (f40 f41 ?v4) ?v2) ?v3)) f22)) f1)))))
(assert (forall ((?v0 S22) (?v1 S15) (?v2 S5) (?v3 S15)) (let ((?v_0 (f40 f41 ?v1))) (= (= (f3 (f47 ?v0) (f38 (f39 ?v_0 (f42 f43 (f44 f25 ?v2))) ?v3)) f1) (= (f3 (f47 (f48 f49 (+ (f50 f51 ?v0) 1))) (f38 (f39 ?v_0 (f26 f27 ?v2)) ?v3)) f1)))))
(assert (forall ((?v0 S3) (?v1 S15) (?v2 S8) (?v3 S15) (?v4 S15) (?v5 S15)) (=> (= (f17 ?v0 (f4 (f19 (f38 (f39 (f40 f41 ?v1) ?v2) ?v3)) f22)) f1) (=> (forall ((?v6 S12) (?v7 S12)) (=> (= (f45 (f46 ?v4 ?v6) ?v7) f1) (forall ((?v8 S12)) (=> (forall ((?v9 S12)) (=> (= (f45 (f46 ?v1 ?v9) ?v7) f1) (= (f45 (f46 ?v3 ?v9) ?v8) f1))) (= (f45 (f46 ?v5 ?v6) ?v8) f1))))) (= (f17 ?v0 (f4 (f19 (f38 (f39 (f40 f41 ?v4) ?v2) ?v5)) f22)) f1)))))
(assert (forall ((?v0 S25) (?v1 S15) (?v2 S8) (?v3 S15)) (= (f52 (f53 f54 ?v0) (f38 (f39 (f40 f41 ?v1) ?v2) ?v3)) (f48 f49 0))))
(assert (forall ((?v0 S3) (?v1 S15)) (= (f17 ?v0 (f4 (f19 (f38 (f39 (f40 f41 ?v1) f55) ?v1)) f22)) f1)))
(assert (=> (= (f15 f55) f1) (=> false false)))
(assert (forall ((?v0 S3) (?v1 S22)) (=> (forall ((?v2 S2)) (=> (= (f6 ?v2 ?v0) f1) (= (f3 (f47 (f48 f49 (+ (f50 f51 ?v1) 1))) ?v2) f1))) (forall ((?v2 S2)) (=> (= (f6 ?v2 ?v0) f1) (= (f3 (f47 ?v1) ?v2) f1))))))
(assert (forall ((?v0 S22) (?v1 S2)) (=> (= (f3 (f47 (f48 f49 (+ (f50 f51 ?v0) 1))) ?v1) f1) (= (f3 (f47 ?v0) ?v1) f1))))
(assert (forall ((?v0 S5)) (not (= (f26 f27 ?v0) f55))))
(assert (forall ((?v0 S5)) (not (= f55 (f26 f27 ?v0)))))
(assert (= (f15 f55) f1))
(assert (forall ((?v0 S3) (?v1 S3)) (= (= (f37 ?v0 ?v1) f1) (forall ((?v2 S22)) (=> (forall ((?v3 S2)) (=> (= (f6 ?v3 ?v0) f1) (= (f3 (f47 ?v2) ?v3) f1))) (forall ((?v3 S2)) (=> (= (f6 ?v3 ?v1) f1) (= (f3 (f47 ?v2) ?v3) f1))))))))
(assert (forall ((?v0 S22)) (= (f48 f49 (f50 f51 ?v0)) ?v0)))
(assert (forall ((?v0 Int)) (=> (<= 0 ?v0) (= (f50 f51 (f48 f49 ?v0)) ?v0))))
(assert (forall ((?v0 Int)) (=> (< ?v0 0) (= (f50 f51 (f48 f49 ?v0)) 0))))
(check-sat)
(exit)
